150
100000
50164
49572
30165
58965
14502
9479
52127
69835
44073
71082
26912
25542
31752
6532
72737
26463
8346
46502
2950
53498
32912
23519
35701
47786
20467
74458
22005
18461
24628
48150
30608
12150
24391
21944
44831
32958
43167
24895
49020
11256
45812
51120
58234
51965
1550
19361
32784
29579
36670
25409
30297
64299
42462
66476
48117
38120
22495
26951
26639
23885
12070
23537
11545
18143
8636
70421
29439
16138
16357
20180
12182
42963
13872
6119
71
22956
7656
56644
49287
1141
23078
6896
34503
49569
40497
36726
22412
22162
4497
66981
1316
50713
3440
64340
2546
30112
60552
6563
10974
14899
30303
33524
58121
32739
17873
3073
29109
31921
15240
15255
16207
29
28009
12082
64895
23156
42735
27263
38650
6986
12528
58491
43994
20316
1431
16283
15906
13518
27566
24205
28392
38679
10799
43913
23478
18354
18824
21755
31074
38933
57124
5351
34187
14665
52759
6756
73049
43913
15633
32091
